c preprocessed version of fl417.tsp, 404 vertices, 1148 edges
p td 404 1148
1 0
0 11
0 2
383 0
380 0
1 2
1 3
1 5
1 379
380 1
3 2
4 2
11 2
2 10
2 9
2 6
3 4
3 5
5 4
4 6
5 6
5 7
5 379
7 6
8 6
6 9
7 8
7 81
7 378
7 379
8 9
8 81
10 9
27 9
25 9
28 9
81 9
9 29
9 85
9 82
11 10
17 10
10 27
12 11
382 11
11 17
383 11
13 12
12 17
12 16
12 382
381 12
14 13
13 16
13 62
381 13
14 15
14 22
14 16
14 394
14 62
16 15
22 15
15 20
15 21
15 18
16 17
16 18
18 17
17 27
17 19
18 19
18 20
20 19
21 19
26 19
19 25
19 27
20 21
22 21
21 26
21 23
22 23
22 24
22 394
24 23
26 23
23 25
24 25
24 28
24 57
24 58
24 395
24 59
24 394
26 25
27 25
25 28
28 29
28 30
28 32
28 33
28 57
28 41
28 40
28 56
28 45
28 44
28 43
28 42
30 29
85 29
29 86
29 87
29 90
29 91
30 31
30 91
30 32
32 31
31 93
31 92
31 91
95 31
32 33
32 236
32 237
32 238
32 239
32 240
32 241
32 224
32 242
32 222
95 32
223 32
34 33
235 33
41 33
234 33
33 236
35 34
34 41
34 234
34 37
36 35
35 234
35 37
35 233
36 37
36 38
36 39
54 36
38 37
37 41
38 39
38 40
38 41
39 40
54 39
53 39
40 41
40 42
53 40
42 43
53 42
52 42
51 42
50 42
44 43
48 43
49 43
50 43
45 44
47 44
48 44
46 45
56 45
47 45
46 47
46 56
46 400
46 48
55 46
399 46
47 48
48 49
55 48
50 49
55 49
51 50
50 55
51 52
51 55
53 52
52 54
54 53
57 56
400 56
58 57
400 57
399 57
59 58
399 58
398 58
60 59
395 59
397 59
398 59
61 60
60 393
60 395
60 397
396 60
62 61
61 393
396 61
63 62
62 393
62 394
381 62
64 63
63 379
63 377
63 384
381 63
380 63
65 64
64 384
64 375
64 385
66 65
65 385
65 373
65 386
67 66
66 386
66 371
66 387
68 67
67 387
67 369
67 388
69 68
68 388
68 367
68 389
70 69
69 389
69 365
69 390
71 70
70 390
70 363
70 391
72 71
71 391
71 361
71 392
73 72
72 392
72 359
72 358
74 73
73 358
73 357
73 75
74 75
74 76
288 74
76 75
357 75
75 77
76 77
288 76
78 77
357 77
77 356
288 77
289 77
78 79
78 80
78 81
78 356
78 272
78 274
78 275
78 276
78 290
78 279
78 281
78 284
78 151
271 78
289 78
80 79
82 79
83 79
145 79
79 143
79 151
80 81
80 82
81 82
81 356
81 360
81 362
81 364
81 366
81 368
81 376
81 378
81 370
81 372
81 374
82 83
82 84
82 85
84 83
83 88
83 145
85 84
86 84
87 84
84 88
85 86
86 87
87 88
87 89
87 90
89 88
145 88
88 102
88 101
88 100
88 99
88 98
88 97
354 88
146 88
90 89
354 89
355 89
91 90
90 94
355 90
92 91
91 94
92 93
92 94
93 94
95 93
95 94
355 94
95 96
95 222
95 355
95 354
97 96
112 96
96 222
96 220
96 219
354 96
98 97
97 351
97 108
97 109
97 110
97 111
97 112
354 97
99 98
98 352
98 351
99 100
99 106
99 352
101 100
100 106
100 105
100 104
100 353
101 102
101 353
101 103
102 103
102 136
102 137
102 138
146 102
103 104
353 103
103 135
103 136
104 105
353 104
104 135
104 340
106 105
105 342
105 340
105 343
106 107
352 106
106 342
107 108
342 107
107 341
352 107
351 107
107 344
108 109
351 108
344 108
108 133
108 132
108 345
108 346
108 347
108 348
108 127
108 126
108 125
108 124
108 123
108 122
108 349
109 110
349 109
109 119
109 117
109 118
110 111
110 117
110 116
110 350
111 112
111 350
111 113
111 114
112 113
112 217
112 219
114 113
217 113
113 216
114 115
114 350
114 216
116 115
215 115
115 198
350 115
115 216
116 117
116 215
116 350
118 117
117 215
118 119
118 215
118 214
120 119
349 119
119 214
120 121
120 213
349 120
120 214
122 121
212 121
349 121
121 213
123 122
122 211
122 212
122 349
124 123
123 207
123 208
123 211
125 124
124 205
124 207
124 206
126 125
125 200
125 203
125 205
127 126
126 202
126 200
126 201
127 128
127 202
127 348
128 129
128 202
128 348
129 130
201 129
202 129
129 199
129 198
129 348
129 347
131 130
346 130
347 130
130 198
132 131
197 131
345 131
346 131
131 198
133 132
192 132
132 196
132 197
132 345
133 134
341 133
344 133
133 178
133 177
133 180
133 185
133 187
133 188
133 192
135 134
136 134
139 134
140 134
134 141
341 134
134 178
136 135
340 135
135 341
137 136
139 136
138 137
137 139
138 139
146 138
147 138
140 139
147 139
140 141
147 140
150 140
148 140
142 141
178 141
141 177
141 176
141 175
141 174
143 142
151 142
142 164
142 165
142 166
142 163
142 167
142 336
142 168
142 169
142 337
142 170
142 171
142 338
142 172
142 173
142 174
142 339
142 158
142 157
142 156
142 155
142 154
142 153
142 152
143 144
145 143
143 151
145 144
149 144
146 145
149 145
146 147
149 146
148 146
148 147
149 148
150 148
149 150
151 152
271 151
152 153
152 269
152 270
271 152
153 154
153 269
153 268
154 155
154 268
154 298
155 156
155 298
155 299
156 157
156 299
156 266
156 265
156 300
157 158
157 300
157 263
157 301
157 264
158 159
158 301
158 302
158 303
158 339
159 160
303 159
339 159
338 159
159 261
161 160
338 160
337 160
160 261
162 161
305 161
306 161
161 304
161 261
161 336
161 337
163 162
162 306
162 336
163 164
163 306
163 336
164 165
164 306
164 305
164 307
165 166
165 308
165 310
165 307
166 167
166 310
166 312
166 311
167 168
167 312
167 313
167 316
168 169
168 316
168 318
168 317
169 170
169 318
169 319
169 322
170 171
170 322
170 324
170 323
171 172
171 324
171 325
171 328
172 173
172 328
172 329
172 335
173 174
173 331
173 333
173 335
174 175
174 333
174 334
175 176
334 175
175 260
177 176
179 176
260 176
261 176
176 182
178 177
177 179
177 180
180 179
181 179
179 182
180 181
180 185
181 182
185 181
181 183
181 186
182 183
184 183
183 189
186 183
185 184
187 184
188 184
186 184
184 189
185 186
185 187
187 188
188 189
188 190
188 191
188 192
189 190
191 190
190 259
192 191
191 259
192 193
192 194
192 259
192 196
194 193
259 193
193 195
194 195
194 196
196 195
195 198
196 197
196 198
197 198
199 198
204 198
209 198
213 198
215 198
214 198
216 198
218 198
221 198
210 198
200 199
201 199
203 199
199 204
201 200
203 200
201 202
203 204
203 205
205 204
206 204
204 209
206 205
206 207
206 209
208 207
207 209
208 209
208 210
208 211
209 210
211 210
212 210
210 213
212 211
212 213
213 214
214 215
217 216
216 218
217 218
217 219
219 218
220 218
218 221
220 219
220 221
220 222
222 221
223 222
223 224
258 223
223 257
225 224
243 224
242 224
258 224
226 225
243 225
258 225
257 225
227 226
226 243
226 244
257 226
228 227
227 244
227 245
227 246
229 228
228 246
228 247
228 248
230 229
229 248
229 249
229 250
231 230
230 250
230 251
230 252
232 231
231 252
231 253
231 254
233 232
232 254
232 255
232 256
233 234
233 256
233 235
235 234
235 236
235 256
236 237
256 236
255 236
237 238
255 237
253 237
254 237
238 239
253 238
251 238
252 238
239 240
251 239
249 239
250 239
240 241
249 240
247 240
248 240
241 242
247 241
245 241
246 241
243 242
245 242
244 242
243 244
245 244
245 246
247 246
247 248
249 248
249 250
251 250
251 252
253 252
253 254
255 254
255 256
258 257
260 261
332 260
334 260
262 261
302 261
303 261
304 261
309 261
314 261
315 261
320 261
321 261
326 261
330 261
332 261
327 261
263 262
301 262
302 262
264 263
301 263
265 264
300 264
266 265
300 265
267 266
299 266
268 267
297 267
298 267
299 267
268 269
268 297
268 298
269 270
269 297
271 270
270 297
271 272
296 271
271 295
273 272
272 274
296 272
273 274
273 293
296 273
295 273
292 273
274 275
293 274
294 274
275 276
294 275
291 275
277 276
276 290
291 276
278 277
277 290
291 277
278 279
278 280
278 290
291 278
286 278
280 279
290 279
279 281
280 281
280 282
286 280
282 281
281 284
282 283
282 284
286 282
283 284
286 283
285 283
285 284
289 284
286 285
289 285
287 285
287 286
288 287
289 287
288 289
291 292
294 291
292 293
292 295
292 294
294 293
296 295
298 299
301 302
302 303
305 304
308 304
307 304
304 309
305 306
305 307
308 307
308 309
308 310
310 309
311 309
309 314
311 310
311 312
311 314
313 312
312 314
313 314
313 315
313 316
314 315
316 315
317 315
315 320
317 316
317 318
317 320
319 318
318 320
319 320
319 321
319 322
320 321
322 321
323 321
321 326
323 322
323 324
323 326
325 324
324 326
325 326
325 327
325 328
326 327
328 327
329 327
327 330
329 328
329 330
329 335
331 330
335 330
330 332
331 332
331 333
331 335
333 332
334 332
334 333
337 336
338 337
339 338
340 341
340 343
342 341
343 341
344 341
342 343
345 346
346 347
347 348
352 351
354 355
357 356
359 356
358 356
356 360
357 358
359 358
359 360
359 392
361 360
392 360
360 362
361 362
361 391
361 392
363 362
391 362
362 364
363 364
363 390
363 391
365 364
390 364
364 366
365 366
365 389
365 390
367 366
389 366
366 368
367 368
367 388
367 389
369 368
388 368
368 370
369 370
369 387
369 388
371 370
387 370
370 372
371 372
371 386
371 387
373 372
386 372
372 374
373 374
373 385
373 386
375 374
385 374
374 376
375 376
375 384
375 385
377 376
384 376
376 378
377 378
377 379
377 384
379 378
380 379
381 380
383 380
381 382
381 383
383 382
393 394
393 395
394 395
396 397
399 396
398 396
398 397
399 398
399 400
401 402
401 144
401 149
401 403
402 403
402 140
402 144
402 143
402 141
402 142
403 140
403 149
403 150
